StringID   Type       x          y          demand     ReadyTime  DueDate    ServiceTime
D0         d              23.935    88.952      0.000      0.000     23.983      0.000
S0         f              23.935    88.952      0.000      0.000     23.983      0.000
S1         f              96.330    61.940      0.000      0.000     23.983      0.000
S2         f              62.440    78.680      0.000      0.000     23.983      0.000
C0         c              71.747     3.840      0.074     10.384     13.013      0.150
C1         c              66.136    17.751      0.031      9.701     12.336      0.117
C2         c              24.887     2.157      0.068     12.812     15.302      0.100
C3         c              57.386    74.509      0.089     13.065     16.319      0.150
C4         c              66.657    59.536      0.062     16.726     20.078      0.167

Q Vehicle fuel tank capacity /113.1000/
C Vehicle load capacity /1.1100/
r fuel consumption rate /0.4690/
g inverse refueling rate /0.0068/
v average Velocity /30.2300/
gv charging speed /146.7700/

--------------------
instance_id /36/
number of clusters /8/
working_startTime (hour) /8.00/
working_endTime (hour) /21.25/
instance_endTime (hour) /23.98/
service_time_type /random/
demand_type /random/
instance_type /R/
instance x range /[0.0, 100.0]/
instance y range /[0.0, 100.0]/
cs_time_to_depot (hour)/[2.5560768222196453,1.3182794337849515]/
